25° run output:
{
    "Function": "ClusterB300.tsp",
    "Problem dimension": [
        35,
        156,
        235,
        103,
        85,
        120,
        139,
        141,
        166,
        236,
        29,
        7,
        140,
        199,
        225,
        142,
        92,
        13,
        240,
        278,
        125,
        203,
        173,
        70,
        124,
        299,
        193,
        255,
        91,
        46,
        71,
        41,
        108,
        170,
        112,
        178,
        21,
        0,
        31,
        11,
        257,
        186,
        253,
        181,
        182,
        273,
        191,
        244,
        293,
        121,
        94,
        175,
        169,
        114,
        208,
        263,
        50,
        264,
        118,
        133,
        190,
        144,
        239,
        42,
        143,
        251,
        296,
        249,
        288,
        67,
        38,
        180,
        30,
        260,
        138,
        214,
        80,
        40,
        153,
        84,
        285,
        188,
        179,
        281,
        270,
        117,
        286,
        177,
        5,
        51,
        76,
        73,
        78,
        16,
        81,
        106,
        109,
        215,
        234,
        22,
        34,
        233,
        167,
        207,
        82,
        275,
        298,
        59,
        6,
        43,
        150,
        219,
        26,
        202,
        33,
        195,
        1,
        250,
        102,
        151,
        232,
        266,
        24,
        101,
        88,
        192,
        276,
        25,
        57,
        12,
        79,
        126,
        2,
        64,
        297,
        171,
        149,
        274,
        294,
        110,
        272,
        282,
        17,
        196,
        107,
        231,
        132,
        269,
        19,
        65,
        162,
        9,
        36,
        98,
        238,
        295,
        241,
        212,
        247,
        145,
        174,
        154,
        86,
        49,
        163,
        111,
        14,
        252,
        18,
        8,
        52,
        267,
        261,
        289,
        213,
        97,
        69,
        122,
        48,
        284,
        90,
        37,
        201,
        131,
        55,
        216,
        164,
        172,
        205,
        279,
        157,
        242,
        268,
        230,
        229,
        287,
        123,
        265,
        47,
        128,
        217,
        32,
        161,
        185,
        146,
        119,
        66,
        45,
        227,
        93,
        152,
        72,
        206,
        74,
        96,
        223,
        220,
        256,
        104,
        198,
        53,
        221,
        61,
        10,
        194,
        271,
        245,
        200,
        258,
        160,
        187,
        290,
        105,
        262,
        127,
        224,
        95,
        115,
        197,
        183,
        137,
        87,
        63,
        44,
        75,
        99,
        259,
        280,
        68,
        222,
        184,
        113,
        129,
        248,
        210,
        148,
        283,
        89,
        20,
        54,
        228,
        15,
        165,
        226,
        147,
        204,
        292,
        277,
        243,
        168,
        246,
        77,
        135,
        130,
        4,
        159,
        291,
        100,
        209,
        189,
        211,
        39,
        60,
        27,
        136,
        237,
        116,
        218,
        83,
        158,
        155,
        254,
        58,
        176,
        28,
        134,
        56,
        23,
        3,
        62
    ],
    "Global Optimum": 0,
    "Algorithm": "Genetic algorithm",
    "Parameters": {
        "population": 30,
        "offspring": 30,
        "mutation probability": 0.0033333333333333335,
        "crossover probability": 0.9
    },
    "Fitness": 316280,
    "Solution": [
        35,
        156,
        235,
        103,
        85,
        120,
        139,
        141,
        166,
        236,
        29,
        7,
        140,
        199,
        225,
        142,
        92,
        13,
        240,
        278,
        125,
        203,
        173,
        70,
        124,
        299,
        193,
        255,
        91,
        46,
        71,
        41,
        108,
        170,
        112,
        178,
        21,
        0,
        31,
        11,
        257,
        186,
        253,
        181,
        182,
        273,
        191,
        244,
        293,
        121,
        94,
        175,
        169,
        114,
        208,
        263,
        50,
        264,
        118,
        133,
        190,
        144,
        239,
        42,
        143,
        251,
        296,
        249,
        288,
        67,
        38,
        180,
        30,
        260,
        138,
        214,
        80,
        40,
        153,
        84,
        285,
        188,
        179,
        281,
        270,
        117,
        286,
        177,
        5,
        51,
        76,
        73,
        78,
        16,
        81,
        106,
        109,
        215,
        234,
        22,
        34,
        233,
        167,
        207,
        82,
        275,
        298,
        59,
        6,
        43,
        150,
        219,
        26,
        202,
        33,
        195,
        1,
        250,
        102,
        151,
        232,
        266,
        24,
        101,
        88,
        192,
        276,
        25,
        57,
        12,
        79,
        126,
        2,
        64,
        297,
        171,
        149,
        274,
        294,
        110,
        272,
        282,
        17,
        196,
        107,
        231,
        132,
        269,
        19,
        65,
        162,
        9,
        36,
        98,
        238,
        295,
        241,
        212,
        247,
        145,
        174,
        154,
        86,
        49,
        163,
        111,
        14,
        252,
        18,
        8,
        52,
        267,
        261,
        289,
        213,
        97,
        69,
        122,
        48,
        284,
        90,
        37,
        201,
        131,
        55,
        216,
        164,
        172,
        205,
        279,
        157,
        242,
        268,
        230,
        229,
        287,
        123,
        265,
        47,
        128,
        217,
        32,
        161,
        185,
        146,
        119,
        66,
        45,
        227,
        93,
        152,
        72,
        206,
        74,
        96,
        223,
        220,
        256,
        104,
        198,
        53,
        221,
        61,
        10,
        194,
        271,
        245,
        200,
        258,
        160,
        187,
        290,
        105,
        262,
        127,
        224,
        95,
        115,
        197,
        183,
        137,
        87,
        63,
        44,
        75,
        99,
        259,
        280,
        68,
        222,
        184,
        113,
        129,
        248,
        210,
        148,
        283,
        89,
        20,
        54,
        228,
        15,
        165,
        226,
        147,
        204,
        292,
        277,
        243,
        168,
        246,
        77,
        135,
        130,
        4,
        159,
        291,
        100,
        209,
        189,
        211,
        39,
        60,
        27,
        136,
        237,
        116,
        218,
        83,
        158,
        155,
        254,
        58,
        176,
        28,
        134,
        56,
        23,
        3,
        62
    ],
    "Nb of functions evaluations": 200010,
    "Computational time in seconds": 372.46133756637573,
    "Stopping criterion in evaluations": 200000
}